GeneratedTests/Random_7/Random_7_11.tsp
NAME: Random_7_11
TYPE: TSP
DIMENSION: 7
EDGE_WEIGHT_TYPE: EUC_2D
NODE_COORD_SECTION
1 15.873182 10.40614
2 6.868187 7.728908
3 17.381672 10.559377
4 10.979888 4.3785105
5 16.484299 5.49173
6 0.12296176 6.0695314
7 14.0519705 9.3821
EOF
