GeneratedTests/Random_7/Random_7_11.txt
NAME: Random_7_11
TYPE: TSP
DIMENSION: 7
EDGE_WEIGHT_TYPE: EUC_2D
NODE_COORD_SECTION
1 4.0259485 9.256589
2 6.9866314 18.713713
3 2.1364098 12.619936
4 11.464555 1.3304105
5 4.7504387 2.9653316
6 13.090627 12.603903
7 9.421314 13.512794
EOF
